predicate subcircuitChoco(array [int] of var int: x);
array [1..30] of int: X_INTRODUCED_31_ = [0,1992,2294,923,156,2127,2452,2217,803,2489,874,784,1736,158,631,281,617,296,631,1798,1094,188,166,2155,2049,1337,979,149,76,1218];
array [1..30] of int: X_INTRODUCED_35_ = [2294,651,0,1614,1752,1942,1800,575,243,1841,2299,998,1454,2257,2432,264,1929,1358,1307,529,2261,2043,1096,865,1000,2398,1344,281,1620,2354];
array [1..30] of int: X_INTRODUCED_37_ = [923,1602,1614,0,2242,2034,689,2347,2379,405,2308,1763,1187,310,1526,1912,1050,300,218,825,1837,1616,547,787,1247,1312,754,2271,1451,2273];
array [1..30] of int: X_INTRODUCED_39_ = [156,1427,1752,2242,0,2483,1590,2075,416,928,2183,688,1872,1725,1284,1004,601,2245,1538,1558,1048,2310,1349,1117,9,264,1635,775,852,2147];
array [1..30] of int: X_INTRODUCED_41_ = [2127,1900,1942,2034,2483,0,928,2432,645,2008,218,144,1014,755,2181,1931,795,1339,2047,946,731,1497,921,1411,1048,1350,1637,1078,1532,153];
array [1..30] of int: X_INTRODUCED_43_ = [2452,3,1800,689,1590,928,0,2178,1424,2078,2478,2174,2141,523,1445,873,444,1967,1888,1154,1371,1517,348,1685,1885,1614,1347,354,220,170];
array [1..30] of int: X_INTRODUCED_45_ = [2217,681,575,2347,2075,2432,2178,0,967,1103,1499,293,764,1354,1051,599,345,1630,1519,16,402,1716,1090,657,854,633,98,303,1941,69];
array [1..30] of int: X_INTRODUCED_47_ = [803,1977,243,2379,416,645,1424,967,0,51,633,2366,208,2359,1672,1747,1995,418,489,634,1849,1941,2381,187,1900,977,1944,1484,986,2470];
array [1..30] of int: X_INTRODUCED_49_ = [2489,1344,1841,405,928,2008,2078,1103,51,0,79,2075,1838,415,634,1833,837,875,1860,973,9,1469,804,1012,393,1970,119,39,2434,1548];
array [1..30] of int: X_INTRODUCED_51_ = [874,410,2299,2308,2183,218,2478,1499,633,79,0,824,1979,481,1288,1823,2469,1455,754,49,1924,292,280,2251,849,1462,82,1567,1083,2385];
array [1..30] of int: X_INTRODUCED_53_ = [784,1537,998,1763,688,144,2174,293,2366,2075,824,0,125,1207,1749,1108,1693,399,2451,1921,2010,825,426,2105,1702,1351,96,164,2053,2076];
array [1..30] of int: X_INTRODUCED_55_ = [1736,1417,1454,1187,1872,1014,2141,764,208,1838,1979,125,0,1334,910,854,151,442,114,68,2079,2320,304,882,2014,618,185,888,1494,2031];
array [1..30] of int: X_INTRODUCED_57_ = [158,2207,2257,310,1725,755,523,1354,2359,415,481,1207,1334,0,1840,1147,305,247,2102,2083,952,1510,485,722,1106,247,2262,1814,1166,381];
array [1..30] of int: X_INTRODUCED_59_ = [631,830,2432,1526,1284,2181,1445,1051,1672,634,1288,1749,910,1840,0,1804,1653,533,1161,103,458,1889,2049,15,2231,1501,2484,1644,379,2324];
array [1..30] of int: X_INTRODUCED_61_ = [281,1738,264,1912,1004,1931,873,599,1747,1833,1823,1108,854,1147,1804,0,1551,763,581,1259,904,1494,133,726,1810,697,1452,2238,1211,499];
array [1..30] of int: X_INTRODUCED_63_ = [617,368,1929,1050,601,795,444,345,1995,837,2469,1693,151,305,1653,1551,0,1655,624,243,1357,1634,1281,251,683,781,1635,749,99,2277];
array [1..30] of int: X_INTRODUCED_65_ = [296,738,1358,300,2245,1339,1967,1630,418,875,1455,399,442,247,533,763,1655,0,2098,1404,392,1082,386,2228,955,2231,2441,2134,812,652];
array [1..30] of int: X_INTRODUCED_67_ = [631,296,1307,218,1538,2047,1888,1519,489,1860,754,2451,114,2102,1161,581,624,2098,0,384,1834,1950,2128,1837,1066,2186,1907,1963,1943,1540];
array [1..30] of int: X_INTRODUCED_69_ = [1798,2110,529,825,1558,946,1154,16,634,973,49,1921,68,2083,103,1259,243,1404,384,0,210,428,2026,947,1039,1703,1424,634,1673,1664];
array [1..30] of int: X_INTRODUCED_71_ = [1094,2444,2261,1837,1048,731,1371,402,1849,9,1924,2010,2079,952,458,904,1357,392,1834,210,0,923,1306,267,1603,487,1434,2005,394,77];
array [1..30] of int: X_INTRODUCED_73_ = [188,2250,2043,1616,2310,1497,1517,1716,1941,1469,292,825,2320,1510,1889,1494,1634,1082,1950,428,923,0,161,252,418,866,486,2214,270,580];
array [1..30] of int: X_INTRODUCED_75_ = [166,1178,1096,547,1349,921,348,1090,2381,804,280,426,304,485,2049,133,1281,386,2128,2026,1306,161,0,2336,654,802,1654,1112,2388,425];
array [1..30] of int: X_INTRODUCED_77_ = [2155,726,865,787,1117,1411,1685,657,187,1012,2251,2105,882,722,15,726,251,2228,1837,947,267,252,2336,0,1212,70,86,1694,1455,641];
array [1..30] of int: X_INTRODUCED_79_ = [2049,1166,1000,1247,9,1048,1885,854,1900,393,849,1702,2014,1106,2231,1810,683,955,1066,1039,1603,418,654,1212,0,2425,879,252,374,2246];
array [1..30] of int: X_INTRODUCED_81_ = [1337,1838,2398,1312,264,1350,1614,633,977,1970,1462,1351,618,247,1501,697,781,2231,2186,1703,487,866,802,70,2425,0,1980,920,927,1878];
array [1..30] of int: X_INTRODUCED_83_ = [979,2027,1344,754,1635,1637,1347,98,1944,119,82,96,185,2262,2484,1452,1635,2441,1907,1424,1434,486,1654,86,879,1980,0,1447,2156,711];
array [1..30] of int: X_INTRODUCED_85_ = [149,1268,281,2271,775,1078,354,303,1484,39,1567,164,888,1814,1644,2238,749,2134,1963,634,2005,2214,1112,1694,252,920,1447,0,1889,1624];
array [1..30] of int: X_INTRODUCED_87_ = [76,172,1620,1451,852,1532,220,1941,986,2434,1083,2053,1494,1166,379,1211,99,812,1943,1673,394,270,2388,1455,374,927,2156,1889,0,707];
array [1..30] of int: X_INTRODUCED_89_ = [1218,1679,2354,2273,2147,153,170,69,2470,1548,2385,2076,2031,381,2324,499,2277,652,1540,1664,77,580,425,641,2246,1878,711,1624,707,0];
array [1..29] of int: X_INTRODUCED_212_ = [1,-47,-13,-54,-4,-34,-6,-78,-48,-69,-73,-17,-63,-62,-34,-92,-62,-96,-89,-76,-32,-10,-99,-74,-59,-98,-53,-37,-2];
var 1..30: X_INTRODUCED_0_;
var 1..30: X_INTRODUCED_2_;
var 1..30: X_INTRODUCED_3_;
var 1..30: X_INTRODUCED_4_;
var 1..30: X_INTRODUCED_5_;
var 1..30: X_INTRODUCED_6_;
var 1..30: X_INTRODUCED_7_;
var 1..30: X_INTRODUCED_8_;
var 1..30: X_INTRODUCED_9_;
var 1..30: X_INTRODUCED_10_;
var 1..30: X_INTRODUCED_11_;
var 1..30: X_INTRODUCED_12_;
var 1..30: X_INTRODUCED_13_;
var 1..30: X_INTRODUCED_14_;
var 1..30: X_INTRODUCED_15_;
var 1..30: X_INTRODUCED_16_;
var 1..30: X_INTRODUCED_17_;
var 1..30: X_INTRODUCED_18_;
var 1..30: X_INTRODUCED_19_;
var 1..30: X_INTRODUCED_20_;
var 1..30: X_INTRODUCED_21_;
var 1..30: X_INTRODUCED_22_;
var 1..30: X_INTRODUCED_23_;
var 1..30: X_INTRODUCED_24_;
var 1..30: X_INTRODUCED_25_;
var 1..30: X_INTRODUCED_26_;
var 1..30: X_INTRODUCED_27_;
var 1..30: X_INTRODUCED_28_;
var 1..30: X_INTRODUCED_29_;
var 0..2000: fuel:: output_var:: is_defined_var;
var 0..1481: objective:: output_var:: is_defined_var;
var 0..2489: X_INTRODUCED_32_ ::var_is_introduced :: is_defined_var;
var 0..2432: X_INTRODUCED_36_ ::var_is_introduced :: is_defined_var;
var 0..2379: X_INTRODUCED_38_ ::var_is_introduced :: is_defined_var;
var 0..2483: X_INTRODUCED_40_ ::var_is_introduced :: is_defined_var;
var 0..2483: X_INTRODUCED_42_ ::var_is_introduced :: is_defined_var;
var 0..2478: X_INTRODUCED_44_ ::var_is_introduced :: is_defined_var;
var 0..2432: X_INTRODUCED_46_ ::var_is_introduced :: is_defined_var;
var 0..2470: X_INTRODUCED_48_ ::var_is_introduced :: is_defined_var;
var 0..2489: X_INTRODUCED_50_ ::var_is_introduced :: is_defined_var;
var 0..2478: X_INTRODUCED_52_ ::var_is_introduced :: is_defined_var;
var 0..2451: X_INTRODUCED_54_ ::var_is_introduced :: is_defined_var;
var 0..2320: X_INTRODUCED_56_ ::var_is_introduced :: is_defined_var;
var 0..2359: X_INTRODUCED_58_ ::var_is_introduced :: is_defined_var;
var 0..2484: X_INTRODUCED_60_ ::var_is_introduced :: is_defined_var;
var 0..2238: X_INTRODUCED_62_ ::var_is_introduced :: is_defined_var;
var 0..2469: X_INTRODUCED_64_ ::var_is_introduced :: is_defined_var;
var 0..2441: X_INTRODUCED_66_ ::var_is_introduced :: is_defined_var;
var 0..2451: X_INTRODUCED_68_ ::var_is_introduced :: is_defined_var;
var 0..2110: X_INTRODUCED_70_ ::var_is_introduced :: is_defined_var;
var 0..2444: X_INTRODUCED_72_ ::var_is_introduced :: is_defined_var;
var 0..2320: X_INTRODUCED_74_ ::var_is_introduced :: is_defined_var;
var 0..2388: X_INTRODUCED_76_ ::var_is_introduced :: is_defined_var;
var 0..2336: X_INTRODUCED_78_ ::var_is_introduced :: is_defined_var;
var 0..2425: X_INTRODUCED_80_ ::var_is_introduced :: is_defined_var;
var 0..2425: X_INTRODUCED_82_ ::var_is_introduced :: is_defined_var;
var 0..2484: X_INTRODUCED_84_ ::var_is_introduced :: is_defined_var;
var 0..2271: X_INTRODUCED_86_ ::var_is_introduced :: is_defined_var;
var 0..2434: X_INTRODUCED_88_ ::var_is_introduced :: is_defined_var;
var 0..2470: X_INTRODUCED_90_ ::var_is_introduced :: is_defined_var;
var bool: X_INTRODUCED_99_ ::var_is_introduced :: is_defined_var;
var 0..1: X_INTRODUCED_100_ ::var_is_introduced :: is_defined_var;
var bool: X_INTRODUCED_103_ ::var_is_introduced :: is_defined_var;
var 0..1: X_INTRODUCED_104_ ::var_is_introduced :: is_defined_var;
var bool: X_INTRODUCED_107_ ::var_is_introduced :: is_defined_var;
var 0..1: X_INTRODUCED_108_ ::var_is_introduced :: is_defined_var;
var bool: X_INTRODUCED_111_ ::var_is_introduced :: is_defined_var;
var 0..1: X_INTRODUCED_112_ ::var_is_introduced :: is_defined_var;
var bool: X_INTRODUCED_115_ ::var_is_introduced :: is_defined_var;
var 0..1: X_INTRODUCED_116_ ::var_is_introduced :: is_defined_var;
var bool: X_INTRODUCED_119_ ::var_is_introduced :: is_defined_var;
var 0..1: X_INTRODUCED_120_ ::var_is_introduced :: is_defined_var;
var bool: X_INTRODUCED_123_ ::var_is_introduced :: is_defined_var;
var 0..1: X_INTRODUCED_124_ ::var_is_introduced :: is_defined_var;
var bool: X_INTRODUCED_127_ ::var_is_introduced :: is_defined_var;
var 0..1: X_INTRODUCED_128_ ::var_is_introduced :: is_defined_var;
var bool: X_INTRODUCED_131_ ::var_is_introduced :: is_defined_var;
var 0..1: X_INTRODUCED_132_ ::var_is_introduced :: is_defined_var;
var bool: X_INTRODUCED_135_ ::var_is_introduced :: is_defined_var;
var 0..1: X_INTRODUCED_136_ ::var_is_introduced :: is_defined_var;
var bool: X_INTRODUCED_139_ ::var_is_introduced :: is_defined_var;
var 0..1: X_INTRODUCED_140_ ::var_is_introduced :: is_defined_var;
var bool: X_INTRODUCED_143_ ::var_is_introduced :: is_defined_var;
var 0..1: X_INTRODUCED_144_ ::var_is_introduced :: is_defined_var;
var bool: X_INTRODUCED_147_ ::var_is_introduced :: is_defined_var;
var 0..1: X_INTRODUCED_148_ ::var_is_introduced :: is_defined_var;
var bool: X_INTRODUCED_151_ ::var_is_introduced :: is_defined_var;
var 0..1: X_INTRODUCED_152_ ::var_is_introduced :: is_defined_var;
var bool: X_INTRODUCED_154_ ::var_is_introduced :: is_defined_var;
var 0..1: X_INTRODUCED_155_ ::var_is_introduced :: is_defined_var;
var bool: X_INTRODUCED_158_ ::var_is_introduced :: is_defined_var;
var 0..1: X_INTRODUCED_159_ ::var_is_introduced :: is_defined_var;
var bool: X_INTRODUCED_161_ ::var_is_introduced :: is_defined_var;
var 0..1: X_INTRODUCED_162_ ::var_is_introduced :: is_defined_var;
var bool: X_INTRODUCED_165_ ::var_is_introduced :: is_defined_var;
var 0..1: X_INTRODUCED_166_ ::var_is_introduced :: is_defined_var;
var bool: X_INTRODUCED_169_ ::var_is_introduced :: is_defined_var;
var 0..1: X_INTRODUCED_170_ ::var_is_introduced :: is_defined_var;
var bool: X_INTRODUCED_173_ ::var_is_introduced :: is_defined_var;
var 0..1: X_INTRODUCED_174_ ::var_is_introduced :: is_defined_var;
var bool: X_INTRODUCED_177_ ::var_is_introduced :: is_defined_var;
var 0..1: X_INTRODUCED_178_ ::var_is_introduced :: is_defined_var;
var bool: X_INTRODUCED_181_ ::var_is_introduced :: is_defined_var;
var 0..1: X_INTRODUCED_182_ ::var_is_introduced :: is_defined_var;
var bool: X_INTRODUCED_185_ ::var_is_introduced :: is_defined_var;
var 0..1: X_INTRODUCED_186_ ::var_is_introduced :: is_defined_var;
var bool: X_INTRODUCED_189_ ::var_is_introduced :: is_defined_var;
var 0..1: X_INTRODUCED_190_ ::var_is_introduced :: is_defined_var;
var bool: X_INTRODUCED_193_ ::var_is_introduced :: is_defined_var;
var 0..1: X_INTRODUCED_194_ ::var_is_introduced :: is_defined_var;
var bool: X_INTRODUCED_197_ ::var_is_introduced :: is_defined_var;
var 0..1: X_INTRODUCED_198_ ::var_is_introduced :: is_defined_var;
var bool: X_INTRODUCED_201_ ::var_is_introduced :: is_defined_var;
var 0..1: X_INTRODUCED_202_ ::var_is_introduced :: is_defined_var;
var bool: X_INTRODUCED_205_ ::var_is_introduced :: is_defined_var;
var 0..1: X_INTRODUCED_206_ ::var_is_introduced :: is_defined_var;
array [1..30] of var int: succ:: output_array([1..30]) = [X_INTRODUCED_0_,1,X_INTRODUCED_2_,X_INTRODUCED_3_,X_INTRODUCED_4_,X_INTRODUCED_5_,X_INTRODUCED_6_,X_INTRODUCED_7_,X_INTRODUCED_8_,X_INTRODUCED_9_,X_INTRODUCED_10_,X_INTRODUCED_11_,X_INTRODUCED_12_,X_INTRODUCED_13_,X_INTRODUCED_14_,X_INTRODUCED_15_,X_INTRODUCED_16_,X_INTRODUCED_17_,X_INTRODUCED_18_,X_INTRODUCED_19_,X_INTRODUCED_20_,X_INTRODUCED_21_,X_INTRODUCED_22_,X_INTRODUCED_23_,X_INTRODUCED_24_,X_INTRODUCED_25_,X_INTRODUCED_26_,X_INTRODUCED_27_,X_INTRODUCED_28_,X_INTRODUCED_29_];
array [1..29] of var int: X_INTRODUCED_211_ ::var_is_introduced  = [objective,X_INTRODUCED_100_,X_INTRODUCED_104_,X_INTRODUCED_108_,X_INTRODUCED_112_,X_INTRODUCED_116_,X_INTRODUCED_120_,X_INTRODUCED_124_,X_INTRODUCED_128_,X_INTRODUCED_132_,X_INTRODUCED_136_,X_INTRODUCED_140_,X_INTRODUCED_144_,X_INTRODUCED_148_,X_INTRODUCED_152_,X_INTRODUCED_155_,X_INTRODUCED_159_,X_INTRODUCED_162_,X_INTRODUCED_166_,X_INTRODUCED_170_,X_INTRODUCED_174_,X_INTRODUCED_178_,X_INTRODUCED_182_,X_INTRODUCED_186_,X_INTRODUCED_190_,X_INTRODUCED_194_,X_INTRODUCED_198_,X_INTRODUCED_202_,X_INTRODUCED_206_];
constraint array_int_element(X_INTRODUCED_0_,X_INTRODUCED_31_,X_INTRODUCED_32_):: defines_var(X_INTRODUCED_32_);
constraint array_int_element(X_INTRODUCED_2_,X_INTRODUCED_35_,X_INTRODUCED_36_):: defines_var(X_INTRODUCED_36_);
constraint array_int_element(X_INTRODUCED_3_,X_INTRODUCED_37_,X_INTRODUCED_38_):: defines_var(X_INTRODUCED_38_);
constraint array_int_element(X_INTRODUCED_4_,X_INTRODUCED_39_,X_INTRODUCED_40_):: defines_var(X_INTRODUCED_40_);
constraint array_int_element(X_INTRODUCED_5_,X_INTRODUCED_41_,X_INTRODUCED_42_):: defines_var(X_INTRODUCED_42_);
constraint array_int_element(X_INTRODUCED_6_,X_INTRODUCED_43_,X_INTRODUCED_44_):: defines_var(X_INTRODUCED_44_);
constraint array_int_element(X_INTRODUCED_7_,X_INTRODUCED_45_,X_INTRODUCED_46_):: defines_var(X_INTRODUCED_46_);
constraint array_int_element(X_INTRODUCED_8_,X_INTRODUCED_47_,X_INTRODUCED_48_):: defines_var(X_INTRODUCED_48_);
constraint array_int_element(X_INTRODUCED_9_,X_INTRODUCED_49_,X_INTRODUCED_50_):: defines_var(X_INTRODUCED_50_);
constraint array_int_element(X_INTRODUCED_10_,X_INTRODUCED_51_,X_INTRODUCED_52_):: defines_var(X_INTRODUCED_52_);
constraint array_int_element(X_INTRODUCED_11_,X_INTRODUCED_53_,X_INTRODUCED_54_):: defines_var(X_INTRODUCED_54_);
constraint array_int_element(X_INTRODUCED_12_,X_INTRODUCED_55_,X_INTRODUCED_56_):: defines_var(X_INTRODUCED_56_);
constraint array_int_element(X_INTRODUCED_13_,X_INTRODUCED_57_,X_INTRODUCED_58_):: defines_var(X_INTRODUCED_58_);
constraint array_int_element(X_INTRODUCED_14_,X_INTRODUCED_59_,X_INTRODUCED_60_):: defines_var(X_INTRODUCED_60_);
constraint array_int_element(X_INTRODUCED_15_,X_INTRODUCED_61_,X_INTRODUCED_62_):: defines_var(X_INTRODUCED_62_);
constraint array_int_element(X_INTRODUCED_16_,X_INTRODUCED_63_,X_INTRODUCED_64_):: defines_var(X_INTRODUCED_64_);
constraint array_int_element(X_INTRODUCED_17_,X_INTRODUCED_65_,X_INTRODUCED_66_):: defines_var(X_INTRODUCED_66_);
constraint array_int_element(X_INTRODUCED_18_,X_INTRODUCED_67_,X_INTRODUCED_68_):: defines_var(X_INTRODUCED_68_);
constraint array_int_element(X_INTRODUCED_19_,X_INTRODUCED_69_,X_INTRODUCED_70_):: defines_var(X_INTRODUCED_70_);
constraint array_int_element(X_INTRODUCED_20_,X_INTRODUCED_71_,X_INTRODUCED_72_):: defines_var(X_INTRODUCED_72_);
constraint array_int_element(X_INTRODUCED_21_,X_INTRODUCED_73_,X_INTRODUCED_74_):: defines_var(X_INTRODUCED_74_);
constraint array_int_element(X_INTRODUCED_22_,X_INTRODUCED_75_,X_INTRODUCED_76_):: defines_var(X_INTRODUCED_76_);
constraint array_int_element(X_INTRODUCED_23_,X_INTRODUCED_77_,X_INTRODUCED_78_):: defines_var(X_INTRODUCED_78_);
constraint array_int_element(X_INTRODUCED_24_,X_INTRODUCED_79_,X_INTRODUCED_80_):: defines_var(X_INTRODUCED_80_);
constraint array_int_element(X_INTRODUCED_25_,X_INTRODUCED_81_,X_INTRODUCED_82_):: defines_var(X_INTRODUCED_82_);
constraint array_int_element(X_INTRODUCED_26_,X_INTRODUCED_83_,X_INTRODUCED_84_):: defines_var(X_INTRODUCED_84_);
constraint array_int_element(X_INTRODUCED_27_,X_INTRODUCED_85_,X_INTRODUCED_86_):: defines_var(X_INTRODUCED_86_);
constraint array_int_element(X_INTRODUCED_28_,X_INTRODUCED_87_,X_INTRODUCED_88_):: defines_var(X_INTRODUCED_88_);
constraint array_int_element(X_INTRODUCED_29_,X_INTRODUCED_89_,X_INTRODUCED_90_):: defines_var(X_INTRODUCED_90_);
constraint int_lin_eq([1,-1,-1,-1,-1,-1,-1,-1,-1,-1,-1,-1,-1,-1,-1,-1,-1,-1,-1,-1,-1,-1,-1,-1,-1,-1,-1,-1,-1,-1],[fuel,X_INTRODUCED_32_,X_INTRODUCED_36_,X_INTRODUCED_38_,X_INTRODUCED_40_,X_INTRODUCED_42_,X_INTRODUCED_44_,X_INTRODUCED_46_,X_INTRODUCED_48_,X_INTRODUCED_50_,X_INTRODUCED_52_,X_INTRODUCED_54_,X_INTRODUCED_56_,X_INTRODUCED_58_,X_INTRODUCED_60_,X_INTRODUCED_62_,X_INTRODUCED_64_,X_INTRODUCED_66_,X_INTRODUCED_68_,X_INTRODUCED_70_,X_INTRODUCED_72_,X_INTRODUCED_74_,X_INTRODUCED_76_,X_INTRODUCED_78_,X_INTRODUCED_80_,X_INTRODUCED_82_,X_INTRODUCED_84_,X_INTRODUCED_86_,X_INTRODUCED_88_,X_INTRODUCED_90_],0):: defines_var(fuel);
constraint int_lin_eq(X_INTRODUCED_212_,X_INTRODUCED_211_,0):: defines_var(objective);
constraint subcircuitChoco(succ);
constraint int_ne_reif(X_INTRODUCED_2_,3,X_INTRODUCED_99_):: defines_var(X_INTRODUCED_99_);
constraint bool2int(X_INTRODUCED_99_,X_INTRODUCED_100_):: defines_var(X_INTRODUCED_100_);
constraint int_ne_reif(X_INTRODUCED_3_,4,X_INTRODUCED_103_):: defines_var(X_INTRODUCED_103_);
constraint bool2int(X_INTRODUCED_103_,X_INTRODUCED_104_):: defines_var(X_INTRODUCED_104_);
constraint int_ne_reif(X_INTRODUCED_4_,5,X_INTRODUCED_107_):: defines_var(X_INTRODUCED_107_);
constraint bool2int(X_INTRODUCED_107_,X_INTRODUCED_108_):: defines_var(X_INTRODUCED_108_);
constraint int_ne_reif(X_INTRODUCED_5_,6,X_INTRODUCED_111_):: defines_var(X_INTRODUCED_111_);
constraint bool2int(X_INTRODUCED_111_,X_INTRODUCED_112_):: defines_var(X_INTRODUCED_112_);
constraint int_ne_reif(X_INTRODUCED_6_,7,X_INTRODUCED_115_):: defines_var(X_INTRODUCED_115_);
constraint bool2int(X_INTRODUCED_115_,X_INTRODUCED_116_):: defines_var(X_INTRODUCED_116_);
constraint int_ne_reif(X_INTRODUCED_7_,8,X_INTRODUCED_119_):: defines_var(X_INTRODUCED_119_);
constraint bool2int(X_INTRODUCED_119_,X_INTRODUCED_120_):: defines_var(X_INTRODUCED_120_);
constraint int_ne_reif(X_INTRODUCED_8_,9,X_INTRODUCED_123_):: defines_var(X_INTRODUCED_123_);
constraint bool2int(X_INTRODUCED_123_,X_INTRODUCED_124_):: defines_var(X_INTRODUCED_124_);
constraint int_ne_reif(X_INTRODUCED_9_,10,X_INTRODUCED_127_):: defines_var(X_INTRODUCED_127_);
constraint bool2int(X_INTRODUCED_127_,X_INTRODUCED_128_):: defines_var(X_INTRODUCED_128_);
constraint int_ne_reif(X_INTRODUCED_10_,11,X_INTRODUCED_131_):: defines_var(X_INTRODUCED_131_);
constraint bool2int(X_INTRODUCED_131_,X_INTRODUCED_132_):: defines_var(X_INTRODUCED_132_);
constraint int_ne_reif(X_INTRODUCED_11_,12,X_INTRODUCED_135_):: defines_var(X_INTRODUCED_135_);
constraint bool2int(X_INTRODUCED_135_,X_INTRODUCED_136_):: defines_var(X_INTRODUCED_136_);
constraint int_ne_reif(X_INTRODUCED_12_,13,X_INTRODUCED_139_):: defines_var(X_INTRODUCED_139_);
constraint bool2int(X_INTRODUCED_139_,X_INTRODUCED_140_):: defines_var(X_INTRODUCED_140_);
constraint int_ne_reif(X_INTRODUCED_13_,14,X_INTRODUCED_143_):: defines_var(X_INTRODUCED_143_);
constraint bool2int(X_INTRODUCED_143_,X_INTRODUCED_144_):: defines_var(X_INTRODUCED_144_);
constraint int_ne_reif(X_INTRODUCED_14_,15,X_INTRODUCED_147_):: defines_var(X_INTRODUCED_147_);
constraint bool2int(X_INTRODUCED_147_,X_INTRODUCED_148_):: defines_var(X_INTRODUCED_148_);
constraint int_ne_reif(X_INTRODUCED_15_,16,X_INTRODUCED_151_):: defines_var(X_INTRODUCED_151_);
constraint bool2int(X_INTRODUCED_151_,X_INTRODUCED_152_):: defines_var(X_INTRODUCED_152_);
constraint int_ne_reif(X_INTRODUCED_16_,17,X_INTRODUCED_154_):: defines_var(X_INTRODUCED_154_);
constraint bool2int(X_INTRODUCED_154_,X_INTRODUCED_155_):: defines_var(X_INTRODUCED_155_);
constraint int_ne_reif(X_INTRODUCED_17_,18,X_INTRODUCED_158_):: defines_var(X_INTRODUCED_158_);
constraint bool2int(X_INTRODUCED_158_,X_INTRODUCED_159_):: defines_var(X_INTRODUCED_159_);
constraint int_ne_reif(X_INTRODUCED_18_,19,X_INTRODUCED_161_):: defines_var(X_INTRODUCED_161_);
constraint bool2int(X_INTRODUCED_161_,X_INTRODUCED_162_):: defines_var(X_INTRODUCED_162_);
constraint int_ne_reif(X_INTRODUCED_19_,20,X_INTRODUCED_165_):: defines_var(X_INTRODUCED_165_);
constraint bool2int(X_INTRODUCED_165_,X_INTRODUCED_166_):: defines_var(X_INTRODUCED_166_);
constraint int_ne_reif(X_INTRODUCED_20_,21,X_INTRODUCED_169_):: defines_var(X_INTRODUCED_169_);
constraint bool2int(X_INTRODUCED_169_,X_INTRODUCED_170_):: defines_var(X_INTRODUCED_170_);
constraint int_ne_reif(X_INTRODUCED_21_,22,X_INTRODUCED_173_):: defines_var(X_INTRODUCED_173_);
constraint bool2int(X_INTRODUCED_173_,X_INTRODUCED_174_):: defines_var(X_INTRODUCED_174_);
constraint int_ne_reif(X_INTRODUCED_22_,23,X_INTRODUCED_177_):: defines_var(X_INTRODUCED_177_);
constraint bool2int(X_INTRODUCED_177_,X_INTRODUCED_178_):: defines_var(X_INTRODUCED_178_);
constraint int_ne_reif(X_INTRODUCED_23_,24,X_INTRODUCED_181_):: defines_var(X_INTRODUCED_181_);
constraint bool2int(X_INTRODUCED_181_,X_INTRODUCED_182_):: defines_var(X_INTRODUCED_182_);
constraint int_ne_reif(X_INTRODUCED_24_,25,X_INTRODUCED_185_):: defines_var(X_INTRODUCED_185_);
constraint bool2int(X_INTRODUCED_185_,X_INTRODUCED_186_):: defines_var(X_INTRODUCED_186_);
constraint int_ne_reif(X_INTRODUCED_25_,26,X_INTRODUCED_189_):: defines_var(X_INTRODUCED_189_);
constraint bool2int(X_INTRODUCED_189_,X_INTRODUCED_190_):: defines_var(X_INTRODUCED_190_);
constraint int_ne_reif(X_INTRODUCED_26_,27,X_INTRODUCED_193_):: defines_var(X_INTRODUCED_193_);
constraint bool2int(X_INTRODUCED_193_,X_INTRODUCED_194_):: defines_var(X_INTRODUCED_194_);
constraint int_ne_reif(X_INTRODUCED_27_,28,X_INTRODUCED_197_):: defines_var(X_INTRODUCED_197_);
constraint bool2int(X_INTRODUCED_197_,X_INTRODUCED_198_):: defines_var(X_INTRODUCED_198_);
constraint int_ne_reif(X_INTRODUCED_28_,29,X_INTRODUCED_201_):: defines_var(X_INTRODUCED_201_);
constraint bool2int(X_INTRODUCED_201_,X_INTRODUCED_202_):: defines_var(X_INTRODUCED_202_);
constraint int_ne_reif(X_INTRODUCED_29_,30,X_INTRODUCED_205_):: defines_var(X_INTRODUCED_205_);
constraint bool2int(X_INTRODUCED_205_,X_INTRODUCED_206_):: defines_var(X_INTRODUCED_206_);
solve :: seq_search([int_search(succ,first_fail,indomain_min,complete),int_search([objective],input_order,indomain_max,complete)]) maximize objective;
